c Our program for 11 PGM to CNF Encoding 2
c 1 lambda(b1)    2 lambda(b2)
c 3 ro(b1) 
c 4 lambda(e1)    5 lambda(e2)    6 lambda(e3)
c 7 ro(e1)    8 ro(e2)
c 9 lambda(a1)   10 lambda(a2)
c 11 ro(a1|b1,e1)    12 ro(a1|b1,e2)    13 ro(a1|b1,e3)
c 14 ro(a1|b2,e1)    15 ro(a1|b2,e2)    16 ro(a1|b2,e3)
c 17 lambda(j1)    18 lambda(j2)
c 19 ro(j1|a1)    20 ro(j1|a2)
c 21 lambda(m1)    22 lambda(m2)
c 23 ro(m1|a1)    24 ro(m1|a2)
c weights 1 1 1 1 0.7 0.3 1 1 1 1 1 1 0.01 0.99 0.19 0.81 1 1 1 1 0.90 0.10 0.85 0.15 0.80 0.20 0.30 0.70 0.10 0.90 0 1 1 1 1 1 0.80 0.20 0.10 0.90 1 1 1 1 0.80 0.20 0.10 0.90
p cnf 24 37
1 2 0
-1 -2 0
-3 1 0
3 2 0
4 5 6 0
-4 -5 0
-4 -6 0
-5 -6 0
-7 4 0
7 -8 5 0
7 8 6 0
9 10 0
-9 -10 0
-1 -4 -11 9 0
-1 -5 -12 9 0
-1 -6 -13 9 0
-2 -4 -14 9 0
-2 -5 -15 9 0
-2 -6 -16 9 0
-1 -4 11 10 0
-1 -5 12 10 0
-1 -6 13 10 0
-2 -4 14 10 0
-2 -5 15 10 0
-2 -6 16 10 0
17 18 0
-17 -18 0
-9 -19 17 0
-10 -20 17 0
-9 19 18 0
-10 20 18 0
21 22 0
-21 -22 0
-9 -23 21 0
-10 -24 21 0
-9 23 22 0
-10 24 22 0
